12 12
22 15
14 20 1 3
7 0 1 1
14 3 1 4
12 19 1 4
18 17 2 1
1 0 2 3
20 15 1 4
5 12 1 1
5 0 2 4
11 2 2 5
0 20 2 1
5 0 1 5
19 15 3 5
20 11 1 5
11 13 1 4
11 15 1 2
8 11 1 2
0 18 2 2
0 15 1 4
6 8 2 5
19 3 3 5
7 1 1 3
